(set-option :print-success false)
(set-logic QF_UF)
(declare-sort x87 0)
(declare-sort x41 0)
(declare-fun x62 () x41)
(declare-fun x143 () x41)
(declare-fun x149 (x41 x41) x41)
(declare-fun x79 () x41)
(declare-fun x5 () x41)
(declare-fun x103 () x41)
(assert (not (and (= (x149 x62 x5) x79) (and (= x5 (x149 x103 x143)) (and (= (x149 x103 x103) x143) (= (x149 x5 x143) x62))))))
(assert (not (and (and (= x62 (x149 x5 x79)) (and (= x79 (x149 x5 x5)) (= x103 (x149 x62 x79)))) (= x143 (x149 x103 x62)))))
(assert (not (and (= x143 (x149 x79 x62)) (and (= x62 (x149 x103 x5)) (and (= x79 (x149 x62 x5)) (= x5 (x149 x103 x103)))))))
(assert (not (and (and (= x79 (x149 x5 x143)) (and (= (x149 x5 x5) x143) (= x103 (x149 x79 x143)))) (= (x149 x103 x79) x62))))
(assert (not (and (= (x149 x79 x62) x5) (and (and (= (x149 x143 x143) x103) (= x79 (x149 x62 x103))) (= (x149 x143 x103) x62)))))
(assert (not (and (and (= x103 (x149 x5 x143)) (and (= (x149 x103 x143) x79) (= (x149 x5 x5) x143))) (= x62 (x149 x79 x103)))))
(assert (or (or (or (or (and (not (= x5 (x149 x62 (x149 x62 x5)))) (and (and (and (not (= (x149 x62 (x149 x62 x62)) x62)) (not (= x143 (x149 x62 (x149 x62 x143))))) (not (= x103 (x149 x62 (x149 x62 x103))))) (not (= x79 (x149 x62 (x149 x62 x79)))))) (and (and (and (and (not (= (x149 x143 (x149 x143 x143)) x143)) (not (= (x149 x143 (x149 x143 x62)) x62))) (not (= (x149 x143 (x149 x143 x103)) x103))) (not (= (x149 x143 (x149 x143 x79)) x79))) (not (= x5 (x149 x143 (x149 x143 x5)))))) (and (and (not (= x79 (x149 x103 (x149 x103 x79)))) (and (not (= x103 (x149 x103 (x149 x103 x103)))) (and (not (= x62 (x149 x103 (x149 x103 x62)))) (not (= x143 (x149 x103 (x149 x103 x143))))))) (not (= x5 (x149 x103 (x149 x103 x5)))))) (and (and (not (= (x149 x79 (x149 x79 x79)) x79)) (and (not (= x103 (x149 x79 (x149 x79 x103)))) (and (not (= x62 (x149 x79 (x149 x79 x62)))) (not (= (x149 x79 (x149 x79 x143)) x143))))) (not (= (x149 x79 (x149 x79 x5)) x5)))) (and (not (= x5 (x149 x5 (x149 x5 x5)))) (and (and (and (not (= (x149 x5 (x149 x5 x143)) x143)) (not (= x62 (x149 x5 (x149 x5 x62))))) (not (= (x149 x5 (x149 x5 x103)) x103))) (not (= (x149 x5 (x149 x5 x79)) x79))))))
(assert (not (and (and (= (x149 x5 x62) x143) (and (= x62 (x149 x5 x5)) (= (x149 x143 x62) x103))) (= (x149 x103 x143) x79))))
(assert (not (and (and (and (= x143 (x149 x103 x5)) (= (x149 x62 x62) x5)) (= (x149 x62 x5) x103)) (= x79 (x149 x143 x103)))))
(assert (not (and (and (and (= x103 (x149 x62 x62)) (= x5 (x149 x143 x103))) (= (x149 x62 x103) x143)) (= (x149 x5 x143) x79))))
(assert (not (and (and (= x79 (x149 x103 x5)) (and (= x5 (x149 x103 x103)) (= (x149 x79 x5) x62))) (= (x149 x62 x79) x143))))
(assert (let ((x153 (x149 x62 x62)) (x140 (x149 x79 x103)) (x29 (x149 x103 x103)) (x147 (x149 x5 x5)) (x36 (x149 x79 x143)) (x106 (x149 x143 x79)) (x14 (x149 x143 x143)) (x155 (x149 x143 x62)) (x113 (x149 x103 x79)) (x24 (x149 x103 x62)) (x43 (x149 x79 x79)) (x61 (x149 x62 x5)) (x51 (x149 x103 x143)) (x132 (x149 x79 x5)) (x146 (x149 x79 x62)) (x27 (x149 x5 x143)) (x12 (x149 x5 x79)) (x78 (x149 x62 x79)) (x83 (x149 x62 x143)) (x92 (x149 x143 x103)) (x58 (x149 x143 x5)) (x112 (x149 x5 x62)) (x154 (x149 x103 x5)) (x6 (x149 x5 x103)) (x82 (x149 x62 x103))) (and (and (and (or (or (or (not (= x29 x29)) (or (not (= x82 x24)) (not (= x51 x92)))) (not (= x113 x140))) (not (= x6 x154))) (and (or (not (= x112 x61)) (or (not (= x78 x146)) (or (or (not (= x153 x153)) (not (= x155 x83))) (not (= x82 x24))))) (or (or (not (= x106 x36)) (or (or (not (= x14 x14)) (not (= x155 x83))) (not (= x92 x51)))) (not (= x27 x58))))) (or (or (or (or (not (= x78 x146)) (not (= x36 x106))) (not (= x140 x113))) (not (= x43 x43))) (not (= x12 x132)))) (or (not (= x147 x147)) (or (or (not (= x6 x154)) (or (not (= x58 x27)) (not (= x112 x61)))) (not (= x12 x132)))))))
(assert (not (and (and (and (= (x149 x143 x143) x79) (= x5 (x149 x62 x79))) (= (x149 x143 x79) x62)) (= (x149 x5 x62) x103))))
(assert (not (and (= (x149 x62 x103) x143) (and (= (x149 x5 x79) x103) (and (= (x149 x103 x79) x62) (= (x149 x5 x5) x79))))))
(assert (let ((x120 (x149 x5 x62)) (x22 (x149 x143 x62)) (x102 (x149 x5 x103)) (x44 (x149 x103 x5)) (x70 (x149 x103 x103)) (x13 (x149 x62 x79)) (x114 (x149 x103 x143)) (x93 (x149 x62 x62)) (x8 (x149 x62 x103)) (x107 (x149 x143 x79)) (x31 (x149 x79 x79)) (x55 (x149 x143 x5)) (x35 (x149 x103 x62)) (x122 (x149 x143 x103)) (x88 (x149 x62 x5)) (x145 (x149 x62 x143)) (x136 (x149 x79 x62)) (x90 (x149 x5 x79)) (x86 (x149 x103 x79)) (x84 (x149 x79 x143)) (x37 (x149 x143 x143)) (x101 (x149 x5 x143)) (x148 (x149 x79 x5)) (x42 (x149 x79 x103)) (x108 (x149 x5 x5))) (let ((x152 (= x37 x103)) (x109 (= x93 x5)) (x27 (= x101 x62)) (x64 (= x103 x114)) (x104 (= x42 x5)) (x74 (= x84 x5)) (x118 (= x145 x5)) (x110 (= x5 x120)) (x73 (= x103 x88)) (x131 (= x8 x103)) (x115 (= x145 x103)) (x89 (= x143 x108)) (x105 (= x70 x143)) (x76 (= x37 x143)) (x135 (= x31 x103)) (x28 (= x79 x70)) (x51 (= x114 x62)) (x151 (= x122 x5)) (x91 (= x136 x79)) (x75 (= x5 x8)) (x23 (= x55 x5)) (x17 (= x143 x84)) (x139 (= x79 x44)) (x39 (= x84 x103)) (x11 (= x5 x108)) (x127 (= x79 x86)) (x142 (= x31 x5)) (x29 (= x62 x70)) (x53 (= x101 x103)) (x99 (= x101 x5)) (x7 (= x90 x79)) (x71 (= x103 x120)) (x146 (= x136 x62)) (x60 (= x22 x103)) (x68 (= x143 x120)) (x38 (= x86 x143)) (x117 (= x79 x55)) (x12 (= x90 x62)) (x77 (= x79 x120)) (x50 (= x102 x103)) (x80 (= x5 x22)) (x18 (= x5 x70)) (x26 (= x103 x42)) (x4 (= x103 x108)) (x25 (= x136 x5)) (x155 (= x22 x62)) (x95 (= x143 x13)) (x67 (= x148 x5)) (x141 (= x88 x5)) (x72 (= x107 x143)) (x19 (= x103 x70)) (x57 (= x122 x103)) (x138 (= x143 x35)) (x85 (= x13 x79)) (x134 (= x143 x44)) (x61 (= x88 x62)) (x16 (= x143 x42)) (x128 (= x103 x148)) (x69 (= x79 x8)) (x21 (= x103 x93)) (x133 (= x103 x55)) (x47 (= x143 x114)) (x137 (= x107 x79)) (x24 (= x62 x35)) (x82 (= x62 x8)) (x36 (= x84 x62)) (x40 (= x79 x122)) (x157 (= x90 x5)) (x112 (= x62 x120)) (x111 (= x79 x31)) (x59 (= x148 x143)) (x97 (= x5 x102)) (x1 (= x13 x5)) (x106 (= x107 x62)) (x121 (= x143 x88)) (x126 (= x107 x103)) (x66 (= x8 x143)) (x119 (= x79 x102)) (x32 (= x86 x103)) (x10 (= x102 x143)) (x83 (= x145 x62)) (x33 (= x122 x143)) (x154 (= x62 x44)) (x58 (= x55 x62)) (x52 (= x143 x55)) (x14 (= x37 x62)) (x2 (= x44 x103)) (x147 (= x62 x108)) (x153 (= x93 x62)) (x94 (= x35 x5)) (x125 (= x79 x145)) (x9 (= x37 x79)) (x30 (= x79 x88)) (x45 (= x148 x79)) (x150 (= x79 x22)) (x92 (= x62 x122)) (x3 (= x143 x22)) (x65 (= x90 x143)) (x116 (= x5 x107)) (x63 (= x35 x103)) (x96 (= x93 x143)) (x34 (= x5 x37)) (x132 (= x62 x148)) (x123 (= x5 x44)) (x113 (= x62 x86)) (x158 (= x31 x143)) (x6 (= x62 x102)) (x20 (= x79 x42)) (x48 (= x143 x145)) (x81 (= x136 x103)) (x49 (= x5 x86)) (x130 (= x79 x108)) (x15 (= x93 x79)) (x46 (= x79 x114)) (x156 (= x114 x5)) (x78 (= x13 x62)) (x43 (= x62 x31)) (x56 (= x103 x13)) (x140 (= x42 x62)) (x144 (= x143 x101)) (x100 (= x35 x79)) (x124 (= x143 x136)) (x98 (= x103 x90)) (x54 (= x84 x79)) (x129 (= x101 x79))) (and (and (or (or (and x130 x130) (or (or (or (and x129 x117) (and x77 x30)) (and x119 x139)) (and x7 x45))) (or (or (or (or (or (or (and x40 x46) (or (and x125 x150) (and x9 x9))) (and x54 x137)) (and x117 x129)) (or (or (or (or (and x15 x15) (and x150 x125)) (and x69 x100)) (and x91 x85)) (and x77 x30))) (or (or (or (and x28 x28) (or (and x69 x100) (and x40 x46))) (and x127 x20)) (and x119 x139))) (or (and x7 x45) (or (and x111 x111) (or (or (and x137 x54) (and x91 x85)) (and x20 x127)))))) (and (and (or (or (or (or (or (or (and x124 x95) (and x17 x72)) (and x16 x38)) (and x158 x158)) (and x65 x59)) (or (or (or (or (or (and x33 x47) (or (and x76 x76) (and x48 x3))) (and x17 x72)) (and x52 x144)) (or (or (or (or (and x3 x48) (and x96 x96)) (and x138 x66)) (and x95 x124)) (and x68 x121))) (or (or (and x16 x38) (or (or (and x138 x66) (and x33 x47)) (and x105 x105))) (and x134 x10)))) (or (and x89 x89) (or (and x65 x59) (or (or (and x144 x52) (and x68 x121)) (and x134 x10))))) (or (or (and x147 x147) (or (and x12 x132) (or (or (and x61 x112) (and x58 x27)) (and x154 x6)))) (or (or (and x12 x132) (or (and x43 x43) (or (and x140 x113) (or (and x36 x106) (and x78 x146))))) (or (or (or (and x61 x112) (or (or (and x82 x24) (or (and x155 x83) (and x153 x153))) (and x146 x78))) (or (and x58 x27) (or (and x106 x36) (or (or (and x155 x83) (and x14 x14)) (and x51 x92))))) (or (or (or (and x29 x29) (or (and x82 x24) (and x51 x92))) (and x113 x140)) (and x154 x6)))))) (or (or (or (and x98 x128) (or (and x135 x135) (or (or (and x39 x126) (and x56 x81)) (and x26 x32)))) (or (or (or (or (or (or (and x115 x60) (and x21 x21)) (and x131 x63)) (and x56 x81)) (and x71 x73)) (or (and x133 x53) (or (and x126 x39) (or (and x57 x64) (or (and x152 x152) (and x115 x60)))))) (or (and x2 x50) (or (or (or (and x57 x64) (and x63 x131)) (and x19 x19)) (and x32 x26))))) (or (and x4 x4) (or (or (or (and x73 x71) (and x53 x133)) (and x2 x50)) (and x98 x128)))))) (or (or (or (or (or (or (or (or (and x80 x118) (and x34 x34)) (and x156 x151)) (and x116 x74)) (and x99 x23)) (or (and x141 x110) (or (and x25 x1) (or (or (and x80 x118) (and x109 x109)) (and x75 x94))))) (or (and x97 x123) (or (and x49 x104) (or (or (and x75 x94) (and x156 x151)) (and x18 x18))))) (or (or (or (and x49 x104) (or (and x1 x25) (and x74 x116))) (and x142 x142)) (and x157 x67))) (or (and x11 x11) (or (and x157 x67) (or (or (and x110 x141) (and x23 x99)) (and x123 x97)))))))))
(assert (not (and (and (and (= x143 (x149 x79 x79)) (= (x149 x103 x143) x5)) (= x103 (x149 x79 x143))) (= x62 (x149 x5 x103)))))
(assert (not (and (and (= x5 (x149 x79 x62)) (and (= x62 (x149 x79 x79)) (= x103 (x149 x5 x62)))) (= x143 (x149 x103 x5)))))
(assert (not (and (and (and (= (x149 x79 x79) x62) (= (x149 x5 x62) x143)) (= x5 (x149 x79 x62))) (= x103 (x149 x143 x5)))))
(assert (not (and (= x143 (x149 x79 x5)) (and (and (= (x149 x103 x103) x62) (= (x149 x5 x62) x79)) (= (x149 x103 x62) x5)))))
(assert (not (and (and (= x103 (x149 x143 x79)) (and (= (x149 x103 x79) x5) (= x79 (x149 x143 x143)))) (= x62 (x149 x5 x103)))))
(assert (not (and (and (and (= (x149 x5 x103) x62) (= x103 (x149 x79 x79))) (= x5 (x149 x79 x103))) (= x143 (x149 x62 x5)))))
(assert (not (and (= x62 (x149 x79 x143)) (and (and (= x5 (x149 x103 x103)) (= x79 (x149 x143 x5))) (= x143 (x149 x103 x5))))))
(assert (and (not (= x5 x79)) (and (and (not (= x79 x103)) (and (not (= x143 x5)) (and (and (not (= x143 x103)) (and (not (= x62 x5)) (and (and (not (= x143 x62)) (not (= x103 x62))) (not (= x62 x79))))) (not (= x143 x79))))) (not (= x103 x5)))))
(assert (not (and (and (= x62 (x149 x103 x79)) (and (= (x149 x103 x103) x79) (= (x149 x62 x79) x143))) (= x5 (x149 x143 x62)))))
(assert (not (and (= (x149 x5 x79) x103) (and (= (x149 x143 x62) x79) (and (= (x149 x143 x143) x62) (= (x149 x79 x62) x5))))))
(assert (not (and (= (x149 x103 x62) x79) (and (= x62 (x149 x143 x5)) (and (= (x149 x143 x143) x5) (= x103 (x149 x62 x5)))))))
(assert (not (and (= (x149 x79 x5) x103) (and (= (x149 x62 x143) x5) (and (= x143 (x149 x62 x62)) (= x79 (x149 x5 x143)))))))
(assert (not (and (and (= x143 (x149 x62 x79)) (and (= x5 (x149 x143 x79)) (= x79 (x149 x62 x62)))) (= (x149 x5 x143) x103))))
(assert (not (and (and (and (= (x149 x143 x5) x79) (= (x149 x62 x62) x5)) (= x143 (x149 x62 x5))) (= (x149 x79 x143) x103))))
(assert (not (and (and (and (= (x149 x62 x79) x143) (= x79 (x149 x5 x5))) (= x62 (x149 x5 x79))) (= (x149 x143 x62) x103))))
(assert (not (and (= (x149 x103 x79) x62) (and (and (= (x149 x143 x143) x5) (= x103 (x149 x79 x5))) (= (x149 x143 x5) x79)))))
(assert (not (and (and (= (x149 x62 x5) x143) (and (= (x149 x62 x62) x5) (= x103 (x149 x143 x5)))) (= x79 (x149 x103 x143)))))
(assert (not (and (= x5 (x149 x79 x103)) (and (= x103 (x149 x143 x62)) (and (= (x149 x103 x62) x79) (= (x149 x143 x143) x62))))))
(assert (not (and (= x143 (x149 x5 x62)) (and (and (= x79 (x149 x103 x103)) (= x5 (x149 x62 x79))) (= (x149 x103 x79) x62)))))
(assert (not (and (= x103 (x149 x62 x143)) (and (= x143 (x149 x5 x79)) (and (= (x149 x143 x79) x62) (= (x149 x5 x5) x79))))))
(assert (not (and (and (and (= (x149 x5 x79) x62) (= (x149 x103 x103) x79)) (= x5 (x149 x103 x79))) (= x143 (x149 x62 x5)))))
(assert (not (and (and (and (= x5 (x149 x79 x79)) (= (x149 x103 x5) x62)) (= (x149 x79 x5) x103)) (= (x149 x62 x103) x143))))
(assert (let ((x36 (x149 x103 x143)) (x61 (x149 x79 x103)) (x92 (x149 x143 x103)) (x112 (x149 x79 x143)) (x58 (x149 x79 x5)) (x24 (x149 x62 x5)) (x146 (x149 x143 x5)) (x106 (x149 x103 x103)) (x6 (x149 x5 x62)) (x78 (x149 x103 x62)) (x14 (x149 x62 x79)) (x140 (x149 x103 x79)) (x27 (x149 x79 x79)) (x154 (x149 x5 x143)) (x43 (x149 x79 x62)) (x132 (x149 x5 x79)) (x113 (x149 x103 x5)) (x153 (x149 x62 x62)) (x82 (x149 x143 x62)) (x29 (x149 x143 x79)) (x12 (x149 x5 x103)) (x83 (x149 x62 x103)) (x51 (x149 x143 x143)) (x155 (x149 x62 x143)) (x147 (x149 x5 x5))) (and (and (and (and (and (and (and (and (or (or (or (= x153 x103) (or (= x153 x143) (= x153 x62))) (= x79 x153)) (= x153 x5)) (or (= x155 x5) (or (= x79 x155) (or (= x155 x103) (or (= x155 x62) (= x143 x155)))))) (or (or (or (= x83 x103) (or (= x83 x143) (= x62 x83))) (= x79 x83)) (= x5 x83))) (or (or (or (= x103 x14) (or (= x14 x62) (= x14 x143))) (= x14 x79)) (= x14 x5))) (or (= x24 x5) (or (or (= x103 x24) (or (= x143 x24) (= x62 x24))) (= x24 x79)))) (and (or (= x146 x5) (or (= x79 x146) (or (or (= x146 x143) (= x146 x62)) (= x103 x146)))) (and (and (or (or (= x79 x92) (or (= x103 x92) (or (= x92 x143) (= x62 x92)))) (= x5 x92)) (and (or (= x5 x51) (or (= x79 x51) (or (= x103 x51) (or (= x51 x62) (= x51 x143))))) (or (= x82 x5) (or (= x82 x79) (or (= x82 x103) (or (= x82 x62) (= x143 x82))))))) (or (or (= x79 x29) (or (= x103 x29) (or (= x143 x29) (= x62 x29)))) (= x29 x5))))) (and (or (or (or (= x103 x113) (or (= x62 x113) (= x113 x143))) (= x113 x79)) (= x5 x113)) (and (or (= x140 x5) (or (= x79 x140) (or (= x140 x103) (or (= x143 x140) (= x62 x140))))) (and (or (or (= x79 x106) (or (or (= x106 x143) (= x62 x106)) (= x106 x103))) (= x106 x5)) (and (or (or (or (or (= x36 x143) (= x36 x62)) (= x103 x36)) (= x36 x79)) (= x5 x36)) (or (= x5 x78) (or (or (= x78 x103) (or (= x143 x78) (= x78 x62))) (= x79 x78)))))))) (and (and (and (and (or (or (= x79 x112) (or (= x103 x112) (or (= x112 x62) (= x143 x112)))) (= x112 x5)) (or (or (= x79 x43) (or (= x43 x103) (or (= x43 x62) (= x43 x143)))) (= x5 x43))) (or (= x61 x5) (or (= x61 x79) (or (or (= x61 x143) (= x62 x61)) (= x103 x61))))) (or (= x27 x5) (or (or (or (= x27 x143) (= x27 x62)) (= x103 x27)) (= x27 x79)))) (or (= x58 x5) (or (or (= x103 x58) (or (= x58 x62) (= x143 x58))) (= x79 x58))))) (and (and (and (or (or (or (= x103 x12) (or (= x143 x12) (= x62 x12))) (= x79 x12)) (= x5 x12)) (and (or (or (= x79 x6) (or (= x6 x103) (or (= x6 x62) (= x6 x143)))) (= x5 x6)) (or (or (= x79 x154) (or (or (= x154 x62) (= x143 x154)) (= x103 x154))) (= x5 x154)))) (or (= x132 x5) (or (= x79 x132) (or (= x132 x103) (or (= x143 x132) (= x62 x132)))))) (or (= x147 x5) (or (or (or (= x143 x147) (= x147 x62)) (= x147 x103)) (= x79 x147)))))))
(assert (not (and (= x62 (x149 x79 x5)) (and (and (= (x149 x5 x143) x79) (= (x149 x103 x103) x143)) (= (x149 x103 x143) x5)))))
(assert (not (and (= x79 (x149 x62 x103)) (and (and (= x143 (x149 x5 x5)) (= x62 (x149 x103 x143))) (= (x149 x5 x143) x103)))))
(assert (not (and (= (x149 x62 x79) x5) (and (and (= (x149 x79 x103) x62) (= (x149 x143 x143) x103)) (= (x149 x143 x103) x79)))))
(assert (not (and (and (and (= (x149 x62 x62) x103) (= x79 (x149 x5 x103))) (= (x149 x62 x103) x5)) (= (x149 x79 x5) x143))))
(assert (not (and (= (x149 x79 x143) x62) (and (and (= x79 (x149 x143 x103)) (= (x149 x5 x5) x103)) (= x143 (x149 x5 x103))))))
(assert (not (and (= x103 (x149 x5 x143)) (and (= (x149 x79 x62) x143) (and (= x5 (x149 x143 x62)) (= (x149 x79 x79) x62))))))
(assert (not (and (= x79 (x149 x103 x5)) (and (and (= (x149 x143 x143) x62) (= x103 (x149 x5 x62))) (= x5 (x149 x143 x62))))))
(assert (not (and (and (= (x149 x79 x5) x103) (and (= x5 (x149 x79 x79)) (= x143 (x149 x103 x5)))) (= x62 (x149 x143 x103)))))
(assert (not (and (= x79 (x149 x62 x103)) (and (and (= x62 (x149 x103 x5)) (= x5 (x149 x143 x143))) (= x103 (x149 x143 x5))))))
(assert (not (and (= (x149 x62 x79) x143) (and (= (x149 x5 x103) x79) (and (= (x149 x5 x5) x103) (= x62 (x149 x79 x103)))))))
(assert (not (and (= (x149 x62 x143) x5) (and (= (x149 x79 x103) x143) (and (= x62 (x149 x143 x103)) (= (x149 x79 x79) x103))))))
(assert (not (and (= x62 (x149 x143 x5)) (and (= (x149 x103 x79) x5) (and (= (x149 x5 x79) x143) (= x79 (x149 x103 x103)))))))
(assert (not (and (and (and (= x143 (x149 x79 x79)) (= (x149 x62 x143) x5)) (= x62 (x149 x79 x143))) (= (x149 x5 x62) x103))))
(assert (not (and (and (= (x149 x79 x103) x143) (and (= (x149 x79 x79) x103) (= x5 (x149 x143 x103)))) (= x62 (x149 x5 x143)))))
(assert (not (and (= x79 (x149 x143 x62)) (and (and (= x5 (x149 x103 x103)) (= (x149 x62 x5) x143)) (= x62 (x149 x103 x5))))))
(assert (not (and (= (x149 x5 x143) x79) (and (and (= x62 (x149 x103 x103)) (= (x149 x143 x62) x5)) (= x143 (x149 x103 x62))))))
(assert (not (and (= (x149 x103 x143) x62) (and (= x143 (x149 x5 x79)) (and (= x103 (x149 x143 x79)) (= x79 (x149 x5 x5)))))))
(assert (not (and (and (= (x149 x5 x143) x79) (and (= x62 (x149 x79 x143)) (= (x149 x5 x5) x143))) (= x103 (x149 x62 x79)))))
(assert (not (and (= (x149 x5 x79) x62) (and (and (= x103 (x149 x143 x143)) (= (x149 x79 x103) x5)) (= (x149 x143 x103) x79)))))
(assert (not (and (and (= (x149 x79 x5) x62) (and (= x5 (x149 x79 x79)) (= x143 (x149 x62 x5)))) (= x103 (x149 x143 x62)))))
(assert (not (and (and (and (= (x149 x79 x143) x5) (= (x149 x62 x62) x143)) (= (x149 x62 x143) x79)) (= (x149 x5 x79) x103))))
(assert (not (and (= x103 (x149 x143 x79)) (and (= x79 (x149 x62 x5)) (and (= (x149 x79 x5) x143) (= (x149 x62 x62) x5))))))
(assert (not (and (= (x149 x5 x103) x143) (and (= x103 (x149 x62 x79)) (and (= x79 (x149 x62 x62)) (= (x149 x103 x79) x5))))))
(assert (not (and (and (and (= x5 (x149 x62 x103)) (= x103 (x149 x143 x143))) (= x62 (x149 x143 x103))) (= (x149 x5 x62) x79))))
(assert (not (and (and (= x5 (x149 x143 x62)) (and (= x79 (x149 x5 x62)) (= (x149 x143 x143) x62))) (= (x149 x79 x5) x103))))
(assert (not (and (= x62 (x149 x143 x79)) (and (= (x149 x103 x5) x79) (and (= (x149 x103 x103) x5) (= x143 (x149 x79 x5)))))))
(assert (let ((x92 (x149 x103 x143)) (x147 (x149 x5 x5)) (x146 (x149 x5 x143)) (x61 (x149 x103 x79)) (x153 (x149 x62 x62)) (x58 (x149 x5 x79)) (x154 (x149 x143 x5)) (x36 (x149 x143 x103)) (x82 (x149 x62 x143)) (x83 (x149 x103 x62)) (x113 (x149 x5 x103)) (x6 (x149 x62 x5)) (x112 (x149 x143 x79)) (x132 (x149 x79 x5)) (x12 (x149 x103 x5)) (x140 (x149 x79 x103)) (x78 (x149 x62 x103)) (x29 (x149 x79 x143)) (x106 (x149 x103 x103)) (x24 (x149 x5 x62)) (x14 (x149 x79 x62)) (x43 (x149 x62 x79)) (x27 (x149 x79 x79)) (x51 (x149 x143 x143)) (x155 (x149 x143 x62))) (and (and (and (and (and (and (and (and (and (and (not (= x58 x24)) (and (not (= x24 x113)) (not (= x24 x146)))) (not (= x147 x24))) (not (= x113 x146))) (not (= x58 x146))) (not (= x147 x146))) (not (= x113 x58))) (not (= x147 x113))) (not (= x58 x147))) (and (and (and (and (not (= x43 x6)) (and (and (and (not (= x82 x6)) (and (not (= x43 x82)) (and (and (and (and (not (= x82 x153)) (not (= x153 x78))) (not (= x153 x43))) (not (= x153 x6))) (not (= x82 x78))))) (not (= x43 x78))) (not (= x78 x6)))) (and (not (= x154 x112)) (and (not (= x154 x36)) (and (not (= x36 x112)) (and (and (and (and (and (not (= x155 x112)) (and (not (= x155 x51)) (not (= x36 x155)))) (not (= x154 x155))) (not (= x36 x51))) (not (= x112 x51))) (not (= x51 x154))))))) (and (and (not (= x12 x106)) (and (not (= x61 x106)) (and (and (not (= x92 x61)) (and (not (= x106 x92)) (and (not (= x12 x83)) (and (and (not (= x106 x83)) (not (= x83 x92))) (not (= x83 x61)))))) (not (= x12 x92))))) (not (= x61 x12)))) (and (not (= x27 x132)) (and (and (and (not (= x29 x132)) (and (not (= x27 x29)) (and (not (= x29 x140)) (and (not (= x14 x132)) (and (not (= x27 x14)) (and (not (= x14 x29)) (not (= x14 x140)))))))) (not (= x140 x27))) (not (= x132 x140)))))) (and (and (and (and (not (= x132 x12)) (and (and (not (= x132 x154)) (and (not (= x154 x12)) (and (and (not (= x132 x6)) (and (not (= x6 x154)) (not (= x12 x6)))) (not (= x6 x147))))) (not (= x154 x147)))) (not (= x147 x12))) (not (= x132 x147))) (and (and (and (and (not (= x146 x29)) (and (not (= x146 x92)) (and (not (= x92 x29)) (and (not (= x51 x146)) (and (not (= x29 x51)) (and (not (= x51 x92)) (and (and (and (not (= x82 x51)) (not (= x92 x82))) (not (= x29 x82))) (not (= x82 x146))))))))) (and (and (not (= x83 x24)) (and (and (not (= x24 x155)) (and (and (not (= x155 x83)) (and (and (and (not (= x83 x153)) (not (= x153 x155))) (not (= x14 x153))) (not (= x153 x24)))) (not (= x155 x14)))) (not (= x83 x14)))) (not (= x14 x24)))) (and (and (not (= x106 x113)) (and (not (= x106 x140)) (and (and (not (= x36 x140)) (and (not (= x36 x106)) (and (and (and (not (= x78 x36)) (not (= x78 x106))) (not (= x140 x78))) (not (= x78 x113))))) (not (= x113 x36))))) (not (= x113 x140)))) (and (not (= x27 x58)) (and (not (= x58 x61)) (and (not (= x27 x61)) (and (and (not (= x27 x112)) (and (not (= x112 x61)) (and (not (= x43 x58)) (and (not (= x43 x27)) (and (not (= x112 x43)) (not (= x43 x61))))))) (not (= x58 x112)))))))))))
(assert (not (and (= x143 (x149 x103 x79)) (and (= (x149 x62 x5) x79) (and (= (x149 x62 x62) x5) (= x103 (x149 x79 x5)))))))
(assert (not (and (= x5 (x149 x103 x62)) (and (= x62 (x149 x79 x143)) (and (= (x149 x62 x143) x103) (= (x149 x79 x79) x143))))))
(assert (not (and (and (= x62 (x149 x79 x5)) (and (= x103 (x149 x62 x5)) (= x5 (x149 x79 x79)))) (= (x149 x103 x62) x143))))
(assert (not (and (and (= (x149 x103 x143) x62) (and (= x79 (x149 x62 x143)) (= (x149 x103 x103) x143))) (= x5 (x149 x79 x62)))))
(assert (not (and (= (x149 x103 x5) x62) (and (and (= x79 (x149 x143 x143)) (= (x149 x5 x79) x103)) (= x5 (x149 x143 x79))))))
(assert (not (and (= (x149 x62 x143) x79) (and (= (x149 x5 x103) x143) (and (= (x149 x143 x103) x62) (= (x149 x5 x5) x103))))))
(assert (not (and (= x143 (x149 x5 x79)) (and (and (= (x149 x79 x103) x5) (= x103 (x149 x62 x62))) (= x79 (x149 x62 x103))))))
(assert (not (and (and (= (x149 x5 x103) x62) (and (= (x149 x62 x103) x143) (= x103 (x149 x5 x5)))) (= x79 (x149 x143 x62)))))
(assert (not (and (and (and (= (x149 x62 x143) x5) (= (x149 x103 x103) x143)) (= (x149 x103 x143) x62)) (= x79 (x149 x5 x62)))))
(assert (not (and (= x103 (x149 x62 x79)) (and (and (= (x149 x143 x143) x5) (= (x149 x79 x5) x62)) (= (x149 x143 x5) x79)))))
(assert (not (and (= (x149 x103 x5) x79) (and (and (= x103 (x149 x5 x143)) (= x143 (x149 x62 x62))) (= (x149 x62 x143) x5)))))
(assert (not (and (and (= x143 (x149 x79 x5)) (and (= x103 (x149 x143 x5)) (= x5 (x149 x79 x79)))) (= (x149 x103 x143) x62))))
(assert (not (and (= x62 (x149 x5 x143)) (and (= (x149 x103 x79) x143) (and (= x5 (x149 x143 x79)) (= (x149 x103 x103) x79))))))
(assert (not (and (and (= (x149 x5 x62) x103) (and (= x143 (x149 x103 x62)) (= (x149 x5 x5) x62))) (= (x149 x143 x103) x79))))
(assert (not (and (= (x149 x79 x5) x62) (and (and (= (x149 x5 x103) x79) (= (x149 x143 x143) x103)) (= x5 (x149 x143 x103))))))
(assert (not (and (and (= (x149 x143 x79) x103) (and (= (x149 x143 x143) x79) (= x62 (x149 x103 x79)))) (= (x149 x62 x103) x5))))
(assert (not (and (and (and (= (x149 x5 x5) x103) (= x143 (x149 x79 x103))) (= x79 (x149 x5 x103))) (= x62 (x149 x143 x79)))))
(assert (not (and (and (= x103 (x149 x79 x143)) (and (= x62 (x149 x103 x143)) (= (x149 x79 x79) x143))) (= x5 (x149 x62 x103)))))
(assert (not (and (= (x149 x103 x143) x5) (and (= (x149 x62 x79) x143) (and (= x103 (x149 x143 x79)) (= (x149 x62 x62) x79))))))
(assert (not (and (and (= (x149 x79 x103) x62) (and (= (x149 x79 x79) x103) (= (x149 x62 x103) x143))) (= (x149 x143 x62) x5))))
(assert (not (and (and (= (x149 x5 x62) x79) (and (= x143 (x149 x79 x62)) (= x62 (x149 x5 x5)))) (= x103 (x149 x143 x79)))))
(assert (not (and (and (= (x149 x103 x79) x143) (and (= (x149 x103 x103) x79) (= (x149 x143 x79) x62))) (= (x149 x62 x143) x5))))
(assert (not (and (= (x149 x5 x79) x62) (and (= (x149 x103 x143) x79) (and (= x143 (x149 x103 x103)) (= (x149 x79 x143) x5))))))
(assert (not (and (and (and (= x143 (x149 x103 x79)) (= (x149 x5 x5) x79)) (= x103 (x149 x5 x79))) (= x62 (x149 x143 x103)))))
(assert (not (and (and (= (x149 x5 x62) x103) (and (= (x149 x103 x62) x79) (= x62 (x149 x5 x5)))) (= x143 (x149 x79 x103)))))
(assert (not (and (and (and (= (x149 x62 x62) x79) (= x143 (x149 x5 x79))) (= (x149 x62 x79) x5)) (= x103 (x149 x143 x5)))))
(assert (let ((x14 (x149 x79 x79)) (x24 (x149 x5 x5)) (x83 (x149 x103 x103)) (x155 (x149 x143 x143)) (x153 (x149 x62 x62))) (or (and (not (= x5 x24)) (and (not (= x14 x5)) (and (and (not (= x153 x5)) (not (= x5 x155))) (not (= x5 x83))))) (or (or (and (not (= x103 x24)) (and (and (and (not (= x103 x153)) (not (= x155 x103))) (not (= x103 x83))) (not (= x103 x14)))) (or (and (not (= x24 x143)) (and (and (not (= x83 x143)) (and (not (= x155 x143)) (not (= x143 x153)))) (not (= x14 x143)))) (and (and (and (not (= x62 x83)) (and (not (= x62 x153)) (not (= x155 x62)))) (not (= x14 x62))) (not (= x62 x24))))) (and (not (= x79 x24)) (and (not (= x14 x79)) (and (not (= x79 x83)) (and (not (= x153 x79)) (not (= x79 x155))))))))))
(assert (not (and (and (and (= (x149 x5 x143) x62) (= x143 (x149 x79 x79))) (= x5 (x149 x79 x143))) (= (x149 x62 x5) x103))))
(assert (not (and (= (x149 x79 x143) x5) (and (= x143 (x149 x62 x103)) (and (= x103 (x149 x62 x62)) (= x79 (x149 x143 x103)))))))
(assert (not (and (and (= x79 (x149 x62 x103)) (and (= x143 (x149 x79 x103)) (= x103 (x149 x62 x62)))) (= (x149 x143 x79) x5))))
(assert (not (and (= (x149 x5 x62) x143) (and (= x62 (x149 x79 x103)) (and (= (x149 x79 x79) x103) (= (x149 x62 x103) x5))))))
(assert (not (and (= x143 (x149 x79 x103)) (and (= (x149 x62 x5) x103) (and (= (x149 x103 x5) x79) (= x5 (x149 x62 x62)))))))
(assert (not (and (= (x149 x5 x103) x79) (and (= (x149 x62 x143) x103) (and (= x143 (x149 x62 x62)) (= x5 (x149 x103 x143)))))))
(assert (not (and (= (x149 x103 x143) x5) (and (= (x149 x79 x62) x143) (and (= x62 (x149 x79 x79)) (= x103 (x149 x143 x62)))))))
(assert (not (and (= x5 (x149 x143 x103)) (and (and (= (x149 x103 x79) x143) (= (x149 x62 x62) x79)) (= x103 (x149 x62 x79))))))
(assert (not (and (= (x149 x143 x5) x79) (and (and (= x62 (x149 x103 x103)) (= (x149 x5 x62) x143)) (= (x149 x103 x62) x5)))))
(assert (not (and (= (x149 x5 x103) x79) (and (= (x149 x143 x62) x103) (and (= (x149 x143 x143) x62) (= x5 (x149 x103 x62)))))))
(assert (or (and (and (and (not (= x103 (x149 x5 x103))) (and (not (= (x149 x5 x62) x62)) (not (= x143 (x149 x5 x143))))) (not (= x79 (x149 x5 x79)))) (not (= (x149 x5 x5) x5))) (or (and (not (= (x149 x79 x5) x5)) (and (and (not (= (x149 x79 x103) x103)) (and (not (= x62 (x149 x79 x62))) (not (= x143 (x149 x79 x143))))) (not (= x79 (x149 x79 x79))))) (or (and (not (= (x149 x103 x5) x5)) (and (and (not (= (x149 x103 x103) x103)) (and (not (= x62 (x149 x103 x62))) (not (= x143 (x149 x103 x143))))) (not (= x79 (x149 x103 x79))))) (or (and (not (= (x149 x143 x5) x5)) (and (and (and (not (= (x149 x143 x143) x143)) (not (= x62 (x149 x143 x62)))) (not (= x103 (x149 x143 x103)))) (not (= x79 (x149 x143 x79))))) (and (not (= (x149 x62 x5) x5)) (and (not (= (x149 x62 x79) x79)) (and (and (not (= (x149 x62 x62) x62)) (not (= x143 (x149 x62 x143)))) (not (= (x149 x62 x103) x103))))))))))
(assert (not (and (= x79 (x149 x62 x5)) (and (and (= x62 (x149 x5 x103)) (= (x149 x143 x143) x103)) (= (x149 x143 x103) x5)))))
(assert (not (and (= (x149 x79 x143) x5) (and (and (= x79 (x149 x143 x62)) (= x62 (x149 x103 x103))) (= (x149 x103 x62) x143)))))
(assert (not (and (= x5 (x149 x143 x103)) (and (= (x149 x79 x62) x103) (and (= x62 (x149 x79 x79)) (= x143 (x149 x103 x62)))))))
(assert (not (and (= x103 (x149 x79 x62)) (and (= x62 (x149 x143 x5)) (and (= x5 (x149 x143 x143)) (= (x149 x62 x5) x79))))))
(assert (not (and (= x103 (x149 x79 x143)) (and (and (= x62 (x149 x5 x5)) (= (x149 x143 x62) x79)) (= x143 (x149 x5 x62))))))
(assert (not (and (and (and (= x143 (x149 x79 x62)) (= (x149 x103 x103) x62)) (= x79 (x149 x103 x62))) (= x5 (x149 x143 x79)))))
(assert (not (and (and (= (x149 x143 x79) x5) (and (= (x149 x5 x79) x62) (= x79 (x149 x143 x143)))) (= x103 (x149 x62 x5)))))
(assert (not (and (and (= (x149 x143 x79) x62) (and (= x79 (x149 x143 x143)) (= x103 (x149 x62 x79)))) (= (x149 x103 x62) x5))))
(assert (not (and (= x5 (x149 x79 x103)) (and (and (= (x149 x103 x143) x79) (= (x149 x62 x62) x143)) (= x103 (x149 x62 x143))))))
(assert (not (and (= (x149 x103 x5) x143) (and (and (= x79 (x149 x62 x62)) (= x103 (x149 x5 x79))) (= (x149 x62 x79) x5)))))
(assert (not (and (= (x149 x62 x143) x103) (and (= x143 (x149 x79 x5)) (and (= (x149 x79 x79) x5) (= (x149 x143 x5) x62))))))
(assert (not (and (and (and (= (x149 x79 x62) x103) (= (x149 x143 x143) x62)) (= x79 (x149 x143 x62))) (= (x149 x103 x79) x5))))
(assert (not (and (= (x149 x5 x103) x143) (and (= (x149 x79 x62) x103) (and (= x62 (x149 x79 x79)) (= (x149 x103 x62) x5))))))
(assert (not (and (and (and (= x143 (x149 x5 x103)) (= (x149 x62 x62) x103)) (= (x149 x62 x103) x5)) (= (x149 x143 x5) x79))))
(assert (let ((x154 (x149 x143 x5)) (x96 (x149 x5 x143)) (x57 (x149 x5 x79)) (x30 (x149 x5 x5)) (x24 (x149 x62 x79)) (x82 (x149 x62 x5)) (x55 (x149 x103 x103)) (x29 (x149 x103 x62)) (x83 (x149 x62 x143)) (x58 (x149 x143 x103)) (x155 (x149 x62 x62)) (x6 (x149 x143 x79)) (x14 (x149 x62 x103)) (x146 (x149 x79 x62)) (x60 (x149 x79 x79)) (x115 (x149 x79 x5)) (x70 (x149 x79 x103)) (x105 (x149 x5 x103)) (x138 (x149 x103 x5)) (x92 (x149 x143 x62)) (x78 (x149 x5 x62)) (x93 (x149 x79 x143)) (x27 (x149 x143 x143)) (x101 (x149 x103 x79)) (x147 (x149 x103 x143))) (let ((x136 (= x79 x27)) (x125 (= x5 x101)) (x38 (= x79 x55)) (x120 (= x5 x83)) (x43 (= x83 x62)) (x110 (= x78 x5)) (x34 (= x154 x103)) (x122 (= x62 x58)) (x86 (= x29 x103)) (x144 (= x93 x62)) (x116 (= x154 x79)) (x7 (= x143 x30)) (x54 (= x62 x115)) (x94 (= x138 x103)) (x108 (= x146 x143)) (x16 (= x79 x58)) (x50 (= x79 x101)) (x25 (= x79 x105)) (x9 (= x5 x60)) (x75 (= x103 x115)) (x64 (= x143 x60)) (x33 (= x143 x55)) (x150 (= x5 x6)) (x104 (= x79 x138)) (x47 (= x58 x143)) (x131 (= x101 x143)) (x77 (= x143 x57)) (x117 (= x143 x154)) (x126 (= x6 x103)) (x132 (= x27 x143)) (x10 (= x24 x62)) (x85 (= x138 x62)) (x8 (= x103 x27)) (x133 (= x6 x79)) (x71 (= x93 x79)) (x74 (= x82 x79)) (x158 (= x147 x5)) (x52 (= x62 x70)) (x76 (= x14 x62)) (x111 (= x143 x105)) (x65 (= x101 x62)) (x139 (= x115 x143)) (x153 (= x62 x155)) (x127 (= x96 x143)) (x67 (= x115 x5)) (x129 (= x82 x143)) (x137 (= x62 x30)) (x48 (= x62 x29)) (x17 (= x79 x147)) (x141 (= x96 x5)) (x90 (= x58 x5)) (x119 (= x143 x138)) (x44 (= x103 x14)) (x68 (= x55 x5)) (x56 (= x103 x70)) (x32 (= x60 x103)) (x2 (= x79 x60)) (x113 (= x92 x62)) (x53 (= x79 x24)) (x26 (= x101 x103)) (x112 (= x27 x62)) (x46 (= x105 x62)) (x102 (= x58 x103)) (x20 (= x78 x143)) (x37 (= x147 x62)) (x22 (= x83 x103)) (x59 (= x62 x60)) (x81 (= x93 x103)) (x36 (= x155 x103)) (x123 (= x154 x5)) (x148 (= x14 x5)) (x142 (= x79 x30)) (x106 (= x79 x155)) (x39 (= x24 x103)) (x100 (= x62 x78)) (x135 (= x146 x79)) (x130 (= x103 x96)) (x40 (= x57 x62)) (x12 (= x143 x83)) (x134 (= x62 x6)) (x89 (= x93 x143)) (x73 (= x79 x70)) (x145 (= x103 x92)) (x19 (= x103 x146)) (x18 (= x96 x79)) (x4 (= x70 x5)) (x140 (= x5 x155)) (x69 (= x62 x96)) (x98 (= x5 x146)) (x80 (= x57 x103)) (x157 (= x5 x138)) (x151 (= x79 x78)) (x84 (= x143 x147)) (x118 (= x103 x82)) (x107 (= x29 x143)) (x114 (= x55 x62)) (x97 (= x82 x5)) (x66 (= x14 x143)) (x95 (= x29 x79)) (x51 (= x143 x155)) (x91 (= x154 x62)) (x72 (= x14 x79)) (x88 (= x5 x92)) (x28 (= x62 x82)) (x124 (= x55 x103)) (x128 (= x5 x93)) (x21 (= x143 x70)) (x152 (= x24 x143)) (x1 (= x57 x79)) (x11 (= x5 x30)) (x23 (= x5 x57)) (x156 (= x30 x103)) (x35 (= x79 x92)) (x45 (= x103 x78)) (x109 (= x103 x105)) (x49 (= x79 x115)) (x61 (= x143 x92)) (x42 (= x147 x103)) (x3 (= x27 x5)) (x99 (= x5 x105)) (x31 (= x29 x5)) (x121 (= x62 x146)) (x15 (= x24 x5)) (x63 (= x6 x143)) (x13 (= x83 x79))) (and (and (and (and (and (and (and (or (or (or x95 (or x35 x106)) x135) x151) (or (or (or x72 (or x13 x106)) x53) x74)) (and (and (or (or x39 (or (or x22 x36) x44)) x118) (or (or x19 (or (or x36 x145) x86)) x45)) (and (and (or x129 (or x152 (or (or x51 x12) x66))) (or (or (or (or x51 x61) x107) x108) x20)) (and (or (or x121 (or x48 (or x113 x153))) x100) (or (or x10 (or (or x43 x153) x76)) x28))))) (and (or (or (or x148 (or x140 x120)) x15) x97) (or (or x98 (or (or x88 x140) x31)) x110))) (and (and (or (or x150 (or x90 (or x3 x88))) x123) (or (or (or (or x120 x3) x158) x128) x141)) (and (and (and (or (or x81 (or (or x8 x22) x42)) x130) (or (or (or (or x8 x145) x102) x126) x34)) (and (and (or (or (or x37 (or x43 x112)) x144) x69) (or (or (or x122 (or x113 x112)) x134) x91)) (and (or x117 (or x63 (or x47 (or x132 x61)))) (or x127 (or (or x84 (or x132 x12)) x89))))) (and (or x116 (or x133 (or (or x35 x136) x16))) (or x18 (or (or (or x136 x13) x17) x71)))))) (and (and (or (or (or x68 (or x90 x148)) x4) x99) (or (or x125 (or (or x158 x31) x68)) x157)) (and (and (and (and (or (or x21 (or (or x66 x47) x33)) x111) (or (or (or x33 (or x107 x84)) x131) x119)) (and (or x46 (or (or (or x76 x122) x114) x52)) (or (or (or (or x37 x48) x114) x65) x85))) (and (or x94 (or (or (or x42 x86) x124) x26)) (or (or x56 (or (or x44 x102) x124)) x109))) (and (or (or (or (or x72 x16) x38) x73) x25) (or (or (or x38 (or x95 x17)) x50) x104))))) (and (and (or (or (or x4 (or x128 x98)) x9) x67) (or x23 (or x9 (or (or x15 x150) x125)))) (and (and (and (or x75 (or x32 (or x56 (or x81 x19)))) (or (or (or x26 (or x39 x126)) x32) x80)) (and (and (or x139 (or x64 (or (or x108 x89) x21))) (or (or x64 (or x131 (or x63 x152))) x77)) (and (or x54 (or x59 (or x52 (or x121 x144)))) (or x40 (or (or x65 (or x10 x134)) x59))))) (and (or (or (or x73 (or x71 x135)) x2) x49) (or x1 (or x2 (or x50 (or x53 x133)))))))) (and (and (or x11 (or (or (or x123 x97) x157) x67)) (or x11 (or x23 (or (or x110 x141) x99)))) (and (and (or (or (or (or x151 x18) x25) x1) x142) (or x142 (or x49 (or (or x74 x116) x104)))) (and (and (or x156 (or (or (or x34 x118) x94) x75)) (or (or (or (or x130 x45) x109) x80) x156)) (and (and (or x137 (or (or (or x28 x91) x85) x54)) (or x137 (or (or x46 (or x69 x100)) x40))) (and (or (or (or (or x117 x129) x119) x139) x7) (or (or x77 (or x111 (or x20 x127))) x7))))))))))
(assert (not (and (and (and (= x62 (x149 x103 x103)) (= (x149 x79 x62) x5)) (= (x149 x103 x62) x79)) (= x143 (x149 x5 x79)))))
(assert (not (and (and (and (= (x149 x79 x143) x62) (= (x149 x103 x103) x143)) (= (x149 x103 x143) x79)) (= x5 (x149 x62 x79)))))
(assert (not (and (and (and (= x143 (x149 x5 x5)) (= x103 (x149 x62 x143))) (= (x149 x5 x143) x62)) (= x79 (x149 x103 x62)))))
(assert (not (and (= x62 (x149 x103 x5)) (and (= (x149 x79 x143) x5) (and (= x103 (x149 x5 x143)) (= x143 (x149 x79 x79)))))))
(assert (not (and (= x79 (x149 x62 x143)) (and (and (= (x149 x143 x5) x62) (= (x149 x103 x103) x5)) (= x143 (x149 x103 x5))))))
(assert (not (and (and (= x103 (x149 x143 x5)) (and (= (x149 x103 x5) x79) (= (x149 x143 x143) x5))) (= x62 (x149 x79 x103)))))
(assert (not (and (and (= (x149 x5 x143) x62) (and (= (x149 x62 x143) x79) (= x143 (x149 x5 x5)))) (= (x149 x79 x62) x103))))
(assert (not (and (= (x149 x143 x5) x62) (and (and (= x103 (x149 x79 x79)) (= x143 (x149 x5 x103))) (= (x149 x79 x103) x5)))))
(assert (and (not (= (x149 x5 x5) x5)) (and (and (not (= (x149 x103 x103) x103)) (and (not (= (x149 x143 x143) x143)) (not (= x62 (x149 x62 x62))))) (not (= x79 (x149 x79 x79))))))
(assert (not (and (= x143 (x149 x103 x79)) (and (and (= x103 (x149 x79 x62)) (= x62 (x149 x5 x5))) (= x79 (x149 x5 x62))))))
(assert (not (and (and (= (x149 x5 x103) x62) (and (= x79 (x149 x62 x103)) (= x103 (x149 x5 x5)))) (= (x149 x79 x62) x143))))
(assert (not (and (and (and (= x143 (x149 x62 x62)) (= (x149 x79 x143) x103)) (= x79 (x149 x62 x143))) (= x5 (x149 x103 x79)))))
(assert (let ((x12 (x149 x5 x79)) (x92 (x149 x143 x103)) (x112 (x149 x5 x62)) (x29 (= x103 (x149 x103 x103))) (x154 (x149 x103 x5)) (x153 (= x62 (x149 x62 x62))) (x132 (x149 x79 x5)) (x82 (x149 x62 x103)) (x147 (= x5 (x149 x5 x5))) (x24 (x149 x103 x62)) (x6 (x149 x5 x103)) (x43 (= x79 (x149 x79 x79))) (x78 (x149 x62 x79)) (x36 (x149 x79 x143)) (x61 (x149 x62 x5)) (x14 (= (x149 x143 x143) x143)) (x51 (x149 x103 x143)) (x155 (x149 x143 x62)) (x27 (x149 x5 x143)) (x113 (x149 x103 x79)) (x146 (x149 x79 x62)) (x106 (x149 x143 x79)) (x58 (x149 x143 x5)) (x83 (x149 x62 x143)) (x140 (x149 x79 x103))) (or (or (and x147 x147) (or (or (or (and (= x5 x27) (= x58 x5)) (and (= x61 x5) (= x5 x112))) (and (= x154 x5) (= x6 x5))) (and (= x132 x5) (= x12 x5)))) (or (or (and (= x132 x79) (= x12 x79)) (or (and x43 x43) (or (or (and (= x78 x79) (= x79 x146)) (and (= x106 x79) (= x36 x79))) (and (= x79 x113) (= x79 x140))))) (or (or (or (and (= x112 x62) (= x61 x62)) (or (and (= x146 x62) (= x78 x62)) (or (or (and x153 x153) (and (= x62 x155) (= x62 x83))) (and (= x62 x82) (= x24 x62))))) (or (and (= x58 x143) (= x27 x143)) (or (and (= x143 x106) (= x143 x36)) (or (or (and x14 x14) (and (= x143 x155) (= x83 x143))) (and (= x92 x143) (= x143 x51)))))) (or (and (= x103 x6) (= x154 x103)) (or (and (= x140 x103) (= x103 x113)) (or (and x29 x29) (or (and (= x24 x103) (= x103 x82)) (and (= x103 x92) (= x51 x103)))))))))))
(check-sat)
(exit)
